Instance Name : r205
Date : 2022-07-18
Solution
Route 1 : 28 12 29 33 71 65 51 30 90 64 49 46 8 6 97 87 57 43 91 100 37 93 17 48 60 89 13 58
Route 2 : 59 5 45 83 95 92 98 14 42 15 2 72 39 67 23 75 22 41 73 21 40 76 3 50 79 78 34 81 9 35 66 20 32 10 70 1
Route 3 : 27 69 31 62 63 11 19 36 47 82 7 88 52 18 84 61 16 44 38 86 85 99 96 94 53 26 74 56 4 25 55 54 24 80 68 77
